6 version
1 template id
-1 item version
110 num components
1278 -4 -3 20 0
1278 -4 -2 20 0
1278 -4 -1 20 0
1278 -4 0 20 0
1278 -4 1 20 0
1278 -4 2 20 0
1278 -4 3 20 0
1278 -4 4 20 0
1278 -3 -3 20 0
1278 -3 -2 20 0
1278 -3 -1 20 0
1278 -3 0 20 0
200 -3 0 20 0
1278 -3 1 20 0
1278 -3 2 20 0
1278 -3 3 20 0
1278 -3 4 20 0
1278 -2 -3 20 0
1278 -2 -2 20 0
1278 -2 -1 20 0
1278 -2 0 20 0
200 -2 0 20 0
1278 -2 1 20 0
1278 -2 2 20 0
1278 -2 3 20 0
1278 -2 4 20 0
1278 -1 -3 20 0
1278 -1 -2 20 0
1278 -1 -1 20 0
1278 -1 0 20 0
200 -1 0 20 0
1278 -1 1 20 0
1278 -1 2 20 0
1278 -1 3 20 0
1278 -1 4 20 0
201 0 -3 0 0
1278 0 -3 20 0
201 0 -2 0 0
1278 0 -2 20 0
201 0 -1 0 0
1278 0 -1 20 0
201 0 0 0 0
1278 0 0 20 0
200 0 0 20 0
201 0 1 0 0
1278 0 1 20 0
201 0 2 0 0
1278 0 2 20 0
201 0 3 0 0
1278 0 3 20 0
201 0 4 0 0
1278 0 4 20 0
1278 1 -3 20 0
1278 1 -2 20 0
1278 1 -1 20 0
1278 1 0 20 0
200 1 0 20 0
1278 1 1 20 0
1278 1 2 20 0
1278 1 3 20 0
1278 1 4 20 0
1278 2 -3 20 0
1278 2 -2 20 0
1278 2 -1 20 0
1278 2 0 20 0
200 2 0 20 0
1278 2 1 20 0
1278 2 2 20 0
1278 2 3 20 0
1278 2 4 20 0
1278 3 -3 20 0
201 3 -3 20 0
1278 3 -2 20 0
1278 3 -1 20 0
201 3 -1 20 0
1278 3 0 20 0
201 3 0 20 0
200 3 0 20 0
1278 3 1 20 0
201 3 1 20 0
1278 3 2 20 0
201 3 2 20 0
1278 3 3 20 0
201 3 3 20 0
1278 3 4 20 0
201 3 4 20 0
8183 4 -3 0 0
1278 4 -3 20 0
8183 4 -2 0 0
1278 4 -2 20 0
8183 4 -1 0 0
1278 4 -1 20 0
8183 4 0 0 0
1278 4 0 20 0
8183 4 1 0 0
1278 4 1 20 0
8183 4 2 0 0
1278 4 2 20 0
8183 4 3 0 0
1278 4 3 20 0
1278 4 4 20 0
1278 5 -3 20 0
1278 5 -2 20 0
1278 5 -1 20 0
1278 5 0 20 0
1278 5 1 20 0
1278 5 2 20 0
1278 5 3 20 0
197 5 4 0 0
1278 5 4 20 0
